unsat
(forall ((A (_ BitVec 19))
         (B (_ BitVec 21))
         (C (_ BitVec 21))
         (D (_ BitVec 12))
         (E (_ BitVec 12))
         (F (_ BitVec 21))
         (G (_ BitVec 12))
         (H (_ BitVec 19))
         (I (_ BitVec 3))
         (J (_ BitVec 19))
         (K (_ BitVec 19))
         (L (_ BitVec 35))
         (M (_ BitVec 35))
         (N (_ BitVec 35))
         (O (_ BitVec 19))
         (P (_ BitVec 19))
         (Q (_ BitVec 19))
         (R (_ BitVec 21))
         (S (_ BitVec 16))
         (T (_ BitVec 12))
         (U (_ BitVec 28))
         (V (_ BitVec 19))
         (W (_ BitVec 12))
         (X (_ BitVec 15))
         (Y (_ BitVec 15))
         (Z (_ BitVec 1))
         (A1 (_ BitVec 19))
         (B1 (_ BitVec 36))
         (C1 (_ BitVec 19))
         (D1 (_ BitVec 35))
         (E1 (_ BitVec 1))
         (F1 (_ BitVec 1))
         (G1 (_ BitVec 19))
         (H1 (_ BitVec 1))
         (I1 (_ BitVec 57))
         (J1 (_ BitVec 1))
         (K1 (_ BitVec 21))
         (L1 (_ BitVec 48))
         (M1 (_ BitVec 1))
         (N1 (_ BitVec 1))
         (O1 (_ BitVec 19))
         (P1 (_ BitVec 35))
         (Q1 (_ BitVec 19))
         (R1 (_ BitVec 1))
         (S1 (_ BitVec 1))
         (T1 (_ BitVec 21))
         (U1 (_ BitVec 19))
         (V1 (_ BitVec 1))
         (W1 (_ BitVec 1))
         (X1 (_ BitVec 1))
         (Y1 (_ BitVec 8))
         (Z1 (_ BitVec 1))
         (A2 (_ BitVec 36))
         (B2 (_ BitVec 28))
         (C2 (_ BitVec 35))
         (D2 (_ BitVec 19))
         (E2 (_ BitVec 19))
         (F2 (_ BitVec 21))
         (G2 (_ BitVec 19))
         (H2 (_ BitVec 19))
         (I2 (_ BitVec 1))
         (J2 (_ BitVec 1))
         (K2 (_ BitVec 19))
         (L2 (_ BitVec 19))
         (M2 (_ BitVec 19))
         (N2 (_ BitVec 28))
         (O2 (_ BitVec 1))
         (P2 (_ BitVec 36))
         (Q2 (_ BitVec 28))
         (R2 (_ BitVec 1)))
  (! (let ((a!1 ((_ extract 21 12)
                  (bvadd (concat #b0 K1) (concat #b000 ((_ extract 20 2) T1)))))
           (a!2 (= ((_ extract 22 2)
                     (bvadd ((_ extract 34 12) D1) (concat #b00 R)))
                   #b000000000000000000000))
           (a!3 (= ((_ extract 24 4)
                     (bvadd (concat #x0 B) ((_ extract 34 10) M)))
                   #b000000000000000000000))
           (a!4 (or ((_ bit2bool 1) I)
                    ((_ bit2bool 2) I)
                    (not ((_ bit2bool 0) I))
                    (not ((_ bit2bool 17) L1))
                    (not ((_ bit2bool 1) L1))
                    (not (= ((_ extract 47 32) L1) #xfffe))))
           (a!5 (or ((_ bit2bool 45) L1)
                    ((_ bit2bool 46) L1)
                    (not ((_ bit2bool 0) O))
                    (not ((_ bit2bool 14) L1))
                    (not (= ((_ extract 30 19) L1) #x000))))
           (a!6 (= ((_ extract 18 3)
                     (bvmul #b1111111111111111111 ((_ extract 18 0) I1)))
                   #x0000))
           (a!7 (or (not ((_ bit2bool 36) L1))
                    ((_ bit2bool 1) I)
                    ((_ bit2bool 2) I)
                    (not ((_ bit2bool 0) I))
                    (not (= ((_ extract 14 3) L1) #x000))
                    (not ((_ bit2bool 19) L1))
                    (not ((_ bit2bool 20) L1))))
           (a!8 (= ((_ extract 30 10)
                     (bvadd ((_ extract 34 4) N) (concat #b0000000000 F)))
                   #b000000000000000000000))
           (a!9 (or (not ((_ bit2bool 0) O))
                    (not ((_ bit2bool 18) L1))
                    (not ((_ bit2bool 2) L1))
                    (not (= ((_ extract 47 32) L1) #xfffc))))
           (a!10 (or (not ((_ bit2bool 35) L1))
                     (not ((_ bit2bool 1) L1))
                     (not (= ((_ extract 31 16) L1) #xfffa))
                     (not ((_ bit2bool 0) K2))
                     (not ((_ bit2bool 3) L1))))
           (a!11 (or (not ((_ bit2bool 33) L1))
                     ((_ bit2bool 1) I)
                     ((_ bit2bool 2) I)
                     (not ((_ bit2bool 0) I))
                     (not ((_ bit2bool 1) L1))
                     (not (= ((_ extract 31 16) L1) #xfffa))))
           (a!12 (or ((_ bit2bool 45) L1)
                     ((_ bit2bool 46) L1)
                     (not ((_ bit2bool 0) K2))
                     (not ((_ bit2bool 14) L1))
                     (not (= ((_ extract 30 19) L1) #x000))))
           (a!13 (or (not (= ((_ extract 0 0) A) #b1))
                     (= ((_ extract 0 0) C1) #b1)))
           (a!14 (or ((_ bit2bool 0) O1) (not (= ((_ extract 0 0) P) #b1))))
           (a!15 (or ((_ bit2bool 0) A1) (not (= ((_ extract 0 0) U1) #b1))))
           (a!16 (or (not ((_ bit2bool 18) L1))
                     (not ((_ bit2bool 0) K2))
                     (not (= ((_ extract 2 2) L1) #b1))
                     (not (= ((_ extract 47 32) L1) #xfffc))))
           (a!17 (or (not ((_ bit2bool 1) L1))
                     (not (= ((_ extract 31 16) L1) #xfffa))
                     (not ((_ bit2bool 0) K2))
                     (not (= ((_ extract 2 2) L1) #b1))
                     (= ((_ extract 34 34) L1) #b1)))
           (a!18 (= ((_ extract 26 6)
                      (bvadd (concat #b000000 C) ((_ extract 34 8) P1)))
                    #b000000000000000000000))
           (a!19 (= ((_ extract 28 8)
                      (bvadd (concat #x00 F2) ((_ extract 34 6) C2)))
                    #b000000000000000000000))
           (a!20 (or ((_ bit2bool 34) L1)
                     (not (= I #b001))
                     (not (= ((_ extract 18 16) L1) #b100))
                     (= ((_ extract 2 2) L1) #b1))))
     (let ((a!21 (and (not ((_ bit2bool 1) T))
                      (= a!1 #b0000000000)
                      (= ((_ extract 34 14) L) #b000000000000000000000)
                      (not ((_ bit2bool 1) G))
                      (not ((_ bit2bool 9) G))
                      (not ((_ bit2bool 8) G))
                      (not ((_ bit2bool 7) G))
                      (not ((_ bit2bool 6) G))
                      (not ((_ bit2bool 5) G))
                      (not ((_ bit2bool 4) G))
                      (not ((_ bit2bool 3) G))
                      (not ((_ bit2bool 2) G))
                      (not ((_ bit2bool 0) G))
                      a!2
                      a!3
                      (or (= I #b011) (not (= F1 #b1)) (= M1 #b0))
                      (or (= Z1 #b0) (= M1 #b1) (not (= I #b000)))
                      (or (= I #b011) (not (= V1 #b1)) (= M1 #b0))
                      (not ((_ bit2bool 3) E))
                      (or (not (= M1 #b1)) (not (= I #b001)))
                      (not ((_ bit2bool 1) D))
                      (or ((_ bit2bool 33) L1)
                          ((_ bit2bool 17) L1)
                          ((_ bit2bool 16) L1)
                          ((_ bit2bool 1) I)
                          ((_ bit2bool 2) I)
                          (not ((_ bit2bool 0) I))
                          (not ((_ bit2bool 1) L1)))
                      (or ((_ bit2bool 18) L1)
                          ((_ bit2bool 17) L1)
                          ((_ bit2bool 16) L1)
                          (not ((_ bit2bool 34) L1))
                          ((_ bit2bool 2) L1)
                          ((_ bit2bool 1) I)
                          ((_ bit2bool 2) I)
                          (not ((_ bit2bool 0) I)))
                      a!4
                      (not ((_ bit2bool 7) E))
                      (not ((_ bit2bool 6) E))
                      (not ((_ bit2bool 4) E))
                      (not ((_ bit2bool 0) E))
                      (not ((_ bit2bool 5) E))
                      a!5
                      (or ((_ bit2bool 26) I1)
                          ((_ bit2bool 44) I1)
                          ((_ bit2bool 45) I1)
                          (not ((_ bit2bool 0) O))
                          (not a!6)
                          (not ((_ bit2bool 18) I1)))
                      a!7
                      (or ((_ bit2bool 16) L1)
                          (not ((_ bit2bool 32) L1))
                          ((_ bit2bool 0) L1)
                          (not (= I #b001)))
                      (or (= J2 #b0)
                          (= Z1 #b0)
                          (not (= F1 #b1))
                          (not (= Z #b1)))
                      (or (not ((_ bit2bool 32) L1))
                          (not ((_ bit2bool 0) O))
                          (not ((_ bit2bool 16) L1))
                          (not ((_ bit2bool 0) L1)))
                      a!8
                      (not ((_ bit2bool 2) D))
                      (not ((_ bit2bool 0) W))
                      a!9
                      (or ((_ bit2bool 32) L1)
                          ((_ bit2bool 16) L1)
                          (not ((_ bit2bool 0) O))
                          (not ((_ bit2bool 0) L1)))
                      a!10
                      a!11
                      (or ((_ bit2bool 18) L1)
                          ((_ bit2bool 34) L1)
                          (not ((_ bit2bool 0) O))
                          (not ((_ bit2bool 0) L1))
                          (= ((_ extract 35 35) L1) #b1)
                          (= ((_ extract 3 3) L1) #b1)
                          (not ((_ bit2bool 19) L1)))
                      (or ((_ bit2bool 18) L1)
                          ((_ bit2bool 32) L1)
                          (not ((_ bit2bool 34) L1))
                          ((_ bit2bool 2) L1)
                          ((_ bit2bool 1) I)
                          ((_ bit2bool 2) I)
                          (not ((_ bit2bool 0) I))
                          (= ((_ extract 33 33) L1) #b1))
                      (or ((_ bit2bool 32) L1)
                          (not ((_ bit2bool 0) K2))
                          (not ((_ bit2bool 1) L1))
                          (not ((_ bit2bool 17) L1))
                          (not ((_ bit2bool 33) L1)))
                      (or (not ((_ bit2bool 35) L1))
                          ((_ bit2bool 2) L1)
                          (not ((_ bit2bool 18) L1))
                          (not ((_ bit2bool 0) K2))
                          (= ((_ extract 19 19) L1) #b1)
                          (not ((_ bit2bool 3) L1)))
                      a!12
                      a!13
                      a!14
                      (or (= ((_ extract 0 0) K) #b1) (not ((_ bit2bool 0) K2)))
                      a!15
                      (or (not ((_ bit2bool 0) O)) (= ((_ extract 0 0) L2) #b1))
                      (or ((_ bit2bool 18) L1)
                          (not ((_ bit2bool 0) O))
                          (not ((_ bit2bool 2) L1))
                          (= ((_ extract 35 35) L1) #b1)
                          (= ((_ extract 3 3) L1) #b1)
                          (not ((_ bit2bool 19) L1)))
                      a!16
                      a!17
                      (not ((_ bit2bool 0) T))
                      (not ((_ bit2bool 4) D))
                      (not ((_ bit2bool 0) D))
                      (or ((_ bit2bool 0) L1)
                          ((_ bit2bool 1) I)
                          ((_ bit2bool 2) I)
                          (not ((_ bit2bool 0) I))
                          (not ((_ bit2bool 16) L1))
                          (= ((_ extract 32 32) L1) #b1))
                      a!18
                      (not ((_ bit2bool 2) E))
                      a!19
                      (or (= I #b011)
                          ((_ bit2bool 3) L1)
                          (not ((_ bit2bool 34) L1))
                          ((_ bit2bool 2) I)
                          (not ((_ bit2bool 0) I))
                          (not ((_ bit2bool 18) L1))
                          (= ((_ extract 19 19) L1) #b1)
                          (= ((_ extract 35 35) L1) #b1))
                      (or ((_ bit2bool 33) L1)
                          ((_ bit2bool 17) L1)
                          ((_ bit2bool 1) L1)
                          (not ((_ bit2bool 32) L1))
                          ((_ bit2bool 1) I)
                          ((_ bit2bool 2) I)
                          (not ((_ bit2bool 0) I))
                          (not ((_ bit2bool 16) L1)))
                      (not ((_ bit2bool 3) D))
                      (not ((_ bit2bool 1) W))
                      (or ((_ bit2bool 18) L1)
                          ((_ bit2bool 34) L1)
                          ((_ bit2bool 2) L1)
                          (not ((_ bit2bool 33) L1))
                          ((_ bit2bool 1) I)
                          ((_ bit2bool 2) I)
                          (not ((_ bit2bool 0) I))
                          (not ((_ bit2bool 17) L1)))
                      a!20
                      (not ((_ bit2bool 1) E))
                      (or ((_ bit2bool 33) L1)
                          ((_ bit2bool 16) L1)
                          ((_ bit2bool 1) L1)
                          ((_ bit2bool 1) I)
                          ((_ bit2bool 2) I)
                          (not ((_ bit2bool 0) I))
                          (not ((_ bit2bool 17) L1)))
                      (or ((_ bit2bool 17) L1)
                          ((_ bit2bool 16) L1)
                          ((_ bit2bool 1) L1)
                          (not ((_ bit2bool 33) L1))
                          ((_ bit2bool 1) I)
                          ((_ bit2bool 2) I)
                          (not ((_ bit2bool 0) I)))
                      (not ((_ bit2bool 2) W))
                      (or (not (= S1 #b0)) (= H1 #b0))
                      (or (= Z1 #b0)
                          (= M1 #b1)
                          ((_ bit2bool 16) L1)
                          (not ((_ bit2bool 32) L1))
                          ((_ bit2bool 0) L1)
                          ((_ bit2bool 1) I))
                      (not ((_ bit2bool 3) W))
                      (not ((_ bit2bool 5) D)))))
       (= (INV!slice!1 A
                       B
                       C
                       D
                       E
                       F
                       G
                       H
                       I
                       J
                       K
                       L
                       M
                       N
                       O
                       P
                       Q
                       R
                       S
                       T
                       U
                       V
                       W
                       X
                       Y
                       Z
                       A1
                       B1
                       C1
                       D1
                       E1
                       F1
                       G1
                       H1
                       I1
                       J1
                       K1
                       L1
                       M1
                       N1
                       O1
                       P1
                       Q1
                       R1
                       S1
                       T1
                       U1
                       V1
                       W1
                       X1
                       Y1
                       Z1
                       A2
                       B2
                       C2
                       D2
                       E2
                       F2
                       G2
                       H2
                       I2
                       J2
                       K2
                       L2
                       M2
                       N2
                       O2
                       P2
                       Q2
                       R2)
          a!21)))
     :weight 0))
